7
	1 2	3 1	1 1	1 5	1 3	2 1	1 4
0	1	 1	 0	 0	 0	 0	 0	 
1	1	 1	 0	 0	 0	 0	 0	 
2	0	 0	 0	 0	 0	 0	 0	 
3	0	 0	 0	 0	 0	 0	 1	 
4	1	 1	 0	 0	 0	 0	 0	 
5	0	 0	 0	 0	 0	 1	 0	 
6	1	 1	 0	 0	 0	 0	 0	 
7	0	 0	 0	 0	 0	 1	 1	 
8	1	 1	 0	 0	 0	 0	 0	 
9	0	 0	 0	 0	 1	 0	 0	 
10	1	 1	 0	 0	 0	 0	 0	 
11	0	 0	 0	 0	 1	 0	 1	 
12	1	 1	 0	 0	 0	 0	 0	 
13	0	 0	 0	 0	 1	 1	 0	 
14	1	 1	 0	 0	 0	 0	 0	 
15	0	 0	 0	 0	 1	 1	 1	 
16	1	 1	 0	 0	 0	 0	 0	 
17	0	 0	 0	 1	 0	 0	 0	 
18	1	 1	 0	 0	 0	 0	 0	 
19	0	 0	 0	 1	 0	 0	 1	 
20	1	 1	 0	 0	 0	 0	 0	 
21	0	 0	 0	 1	 0	 1	 0	 
22	1	 1	 0	 0	 0	 0	 0	 
23	0	 0	 0	 1	 0	 1	 1	 
24	1	 1	 0	 0	 0	 0	 0	 
25	0	 0	 0	 1	 1	 0	 0	 
26	1	 1	 0	 0	 0	 0	 0	 
27	0	 0	 0	 1	 1	 0	 1	 
28	1	 1	 0	 0	 0	 0	 0	 
29	0	 0	 0	 1	 1	 1	 0	 
30	1	 1	 0	 0	 0	 0	 0	 
31	0	 0	 0	 1	 1	 1	 1	 
32	1	 1	 0	 0	 0	 0	 0	 
33	0	 0	 1	 0	 0	 0	 0	 
34	1	 1	 0	 0	 0	 0	 0	 
35	0	 0	 1	 0	 0	 0	 1	 
36	1	 1	 0	 0	 0	 0	 0	 
37	0	 0	 1	 0	 0	 1	 0	 
38	1	 1	 0	 0	 0	 0	 0	 
39	0	 0	 1	 0	 0	 1	 1	 
40	0	 1	 1	 0	 0	 0	 0	 
41	0	 1	 1	 0	 0	 0	 0	 
42	0	 0	 1	 0	 1	 0	 0	 
43	0	 1	 1	 0	 0	 0	 0	 
44	0	 0	 1	 0	 1	 0	 1	 
45	0	 1	 1	 0	 0	 0	 0	 
46	0	 0	 1	 0	 1	 1	 0	 
47	0	 1	 1	 0	 0	 0	 0	 
48	0	 0	 1	 0	 1	 1	 1	 
49	0	 1	 1	 0	 0	 0	 0	 
50	0	 0	 1	 1	 0	 0	 0	 
51	0	 1	 1	 0	 0	 0	 0	 
52	0	 0	 1	 1	 0	 0	 1	 
53	0	 1	 1	 0	 0	 0	 0	 
54	0	 0	 1	 1	 0	 1	 0	 
55	0	 1	 1	 0	 0	 0	 0	 
56	0	 0	 1	 1	 0	 1	 1	 
57	0	 1	 1	 0	 0	 0	 0	 
58	0	 0	 1	 1	 1	 0	 0	 
59	0	 1	 1	 0	 0	 0	 0	 
60	0	 0	 1	 1	 1	 0	 1	 
61	0	 1	 1	 0	 0	 0	 0	 
62	0	 0	 1	 1	 1	 1	 0	 
63	0	 1	 1	 0	 0	 0	 0	 
64	0	 0	 1	 1	 1	 1	 1	 
65	0	 1	 1	 0	 0	 0	 0	 
66	0	 1	 0	 0	 0	 0	 0	 
67	0	 1	 1	 0	 0	 0	 0	 
68	0	 1	 0	 0	 0	 0	 1	 
69	0	 1	 0	 0	 0	 1	 0	 
70	0	 1	 1	 0	 0	 0	 0	 
71	0	 1	 0	 0	 0	 1	 1	 
72	0	 1	 1	 0	 0	 0	 0	 
73	0	 1	 0	 0	 1	 0	 0	 
74	0	 1	 1	 0	 0	 0	 0	 
75	0	 1	 0	 0	 1	 0	 1	 
76	0	 1	 1	 0	 0	 0	 0	 
77	0	 1	 0	 0	 1	 1	 0	 
78	0	 1	 1	 0	 0	 0	 0	 
79	0	 1	 0	 0	 1	 1	 1	 
80	0	 1	 1	 0	 0	 0	 0	 
81	0	 1	 0	 1	 0	 0	 0	 
82	0	 1	 1	 0	 0	 0	 0	 
83	0	 1	 0	 1	 0	 0	 1	 
84	0	 1	 1	 0	 0	 0	 0	 
85	0	 1	 0	 1	 0	 1	 0	 
86	0	 1	 1	 0	 0	 0	 0	 
87	0	 1	 0	 1	 0	 1	 1	 
88	0	 1	 1	 0	 0	 0	 0	 
89	0	 1	 0	 1	 1	 0	 0	 
90	0	 1	 1	 0	 0	 0	 0	 
91	0	 1	 0	 1	 1	 0	 1	 
92	0	 1	 1	 0	 0	 0	 0	 
93	0	 1	 0	 1	 1	 1	 0	 
94	0	 1	 1	 0	 0	 0	 0	 
95	0	 1	 0	 1	 1	 1	 1	 
96	0	 1	 1	 0	 0	 0	 0	 
97	0	 1	 1	 0	 0	 0	 1	 
98	0	 1	 1	 0	 0	 0	 0	 
99	0	 1	 1	 0	 0	 1	 0	 
100	0	 1	 1	 0	 0	 0	 0	 
101	0	 1	 1	 0	 0	 1	 1	 
102	0	 1	 1	 0	 0	 0	 0	 
103	0	 1	 1	 0	 1	 0	 0	 
104	0	 1	 1	 0	 0	 0	 0	 
105	0	 1	 1	 0	 1	 0	 1	 
106	0	 1	 1	 0	 0	 0	 0	 
107	0	 1	 1	 0	 1	 1	 0	 
108	0	 1	 1	 0	 0	 0	 0	 
109	0	 1	 1	 0	 1	 1	 1	 
110	0	 1	 1	 0	 0	 0	 0	 
111	0	 1	 1	 1	 0	 0	 0	 
112	0	 1	 1	 0	 0	 0	 0	 
113	0	 1	 1	 1	 0	 0	 1	 
114	0	 1	 1	 0	 0	 0	 0	 
115	0	 1	 1	 1	 0	 1	 0	 
116	0	 1	 1	 0	 0	 0	 0	 
117	0	 1	 1	 1	 0	 1	 1	 
118	0	 1	 1	 0	 0	 0	 0	 
119	0	 1	 1	 1	 1	 0	 0	 
120	0	 1	 1	 0	 0	 0	 0	 
121	0	 1	 1	 1	 1	 0	 1	 
122	0	 1	 1	 0	 0	 0	 0	 
123	0	 1	 1	 1	 1	 1	 0	 
124	0	 1	 1	 0	 0	 0	 0	 
125	0	 1	 1	 1	 1	 1	 1	 
126	0	 1	 1	 0	 0	 0	 0	 
127	1	 0	 0	 0	 0	 0	 0	 
128	0	 1	 1	 0	 0	 0	 0	 
129	1	 0	 0	 0	 0	 0	 1	 
130	0	 1	 1	 0	 0	 0	 0	 
131	1	 0	 0	 0	 0	 1	 0	 
132	1	 0	 0	 0	 0	 1	 1	 
133	0	 1	 1	 1	 0	 0	 0	 
134	1	 0	 0	 0	 1	 0	 0	 
135	0	 0	 0	 0	 0	 1	 0	 
136	1	 0	 0	 0	 1	 0	 1	 
137	0	 0	 0	 0	 0	 1	 0	 
138	1	 0	 0	 0	 1	 1	 0	 
139	0	 0	 0	 0	 0	 1	 0	 
140	1	 0	 0	 0	 1	 1	 1	 
141	0	 0	 0	 0	 0	 1	 0	 
142	1	 0	 0	 1	 0	 0	 0	 
143	0	 0	 0	 0	 0	 1	 0	 
144	1	 0	 0	 1	 0	 0	 1	 
145	0	 0	 0	 0	 0	 1	 0	 
146	1	 0	 0	 1	 0	 1	 0	 
147	0	 0	 0	 0	 0	 1	 0	 
148	1	 0	 0	 1	 0	 1	 1	 
149	0	 0	 0	 0	 0	 1	 0	 
150	1	 0	 0	 1	 1	 0	 0	 
151	0	 0	 0	 0	 0	 1	 0	 
152	1	 0	 0	 1	 1	 0	 1	 
153	0	 1	 1	 0	 0	 1	 0	 
154	1	 0	 0	 1	 1	 1	 0	 
155	0	 1	 1	 0	 0	 1	 0	 
156	1	 0	 0	 1	 1	 1	 1	 
157	0	 1	 1	 0	 0	 1	 0	 
158	1	 0	 1	 0	 0	 0	 0	 
159	0	 1	 1	 0	 0	 1	 0	 
160	1	 0	 1	 0	 0	 0	 1	 
161	0	 1	 1	 0	 0	 1	 0	 
162	1	 0	 1	 0	 0	 1	 0	 
163	0	 1	 1	 0	 0	 1	 0	 
164	1	 0	 1	 0	 0	 1	 1	 
165	1	 0	 1	 0	 1	 0	 0	 
166	0	 1	 1	 0	 0	 1	 0	 
167	1	 0	 1	 0	 1	 0	 1	 
168	0	 1	 1	 0	 0	 1	 0	 
169	1	 0	 1	 0	 1	 1	 0	 
170	0	 1	 1	 0	 0	 1	 0	 
171	1	 0	 1	 0	 1	 1	 1	 
172	0	 1	 1	 0	 0	 1	 0	 
173	1	 0	 1	 1	 0	 0	 0	 
174	0	 1	 1	 0	 0	 1	 0	 
175	1	 0	 1	 1	 0	 0	 1	 
176	0	 1	 1	 0	 0	 1	 0	 
177	1	 0	 1	 1	 0	 1	 0	 
178	0	 1	 1	 0	 0	 1	 0	 
179	1	 0	 1	 1	 0	 1	 1	 
180	0	 1	 1	 0	 0	 1	 0	 
181	1	 0	 1	 1	 1	 0	 0	 
182	0	 1	 1	 0	 0	 1	 0	 
183	1	 0	 1	 1	 1	 0	 1	 
184	0	 1	 1	 0	 0	 1	 0	 
185	1	 0	 1	 1	 1	 1	 0	 
186	0	 1	 1	 0	 0	 1	 0	 
187	1	 0	 1	 1	 1	 1	 1	 
188	0	 1	 1	 0	 0	 1	 0	 
189	1	 1	 0	 0	 0	 0	 1	 
190	0	 1	 1	 0	 0	 1	 0	 
191	1	 1	 0	 0	 0	 1	 0	 
192	0	 1	 1	 0	 0	 1	 0	 
193	1	 1	 0	 0	 0	 1	 1	 
194	1	 1	 0	 0	 1	 0	 0	 
195	0	 1	 1	 0	 0	 1	 0	 
196	1	 1	 0	 0	 1	 0	 1	 
197	0	 1	 1	 0	 0	 1	 0	 
198	1	 1	 0	 0	 1	 1	 0	 
199	0	 1	 1	 0	 0	 1	 0	 
200	1	 1	 0	 0	 1	 1	 1	 
201	0	 1	 1	 0	 0	 1	 0	 
202	1	 1	 0	 1	 0	 0	 0	 
203	0	 1	 1	 0	 0	 1	 0	 
204	1	 1	 0	 1	 0	 0	 1	 
205	0	 1	 1	 0	 0	 1	 0	 
206	1	 1	 0	 1	 0	 1	 0	 
207	0	 1	 1	 0	 0	 1	 0	 
208	1	 1	 0	 1	 0	 1	 1	 
209	0	 1	 1	 0	 0	 1	 0	 
210	1	 1	 0	 1	 1	 0	 0	 
211	0	 1	 1	 0	 0	 1	 0	 
212	1	 1	 0	 1	 1	 0	 1	 
213	0	 1	 1	 0	 0	 1	 0	 
214	1	 1	 0	 1	 1	 1	 0	 
215	0	 1	 1	 0	 0	 1	 0	 
216	1	 1	 0	 1	 1	 1	 1	 
217	0	 1	 1	 0	 0	 1	 0	 
218	1	 1	 1	 0	 0	 0	 0	 
219	0	 1	 1	 0	 1	 1	 0	 
220	1	 1	 1	 0	 0	 0	 1	 
221	0	 1	 1	 0	 1	 1	 0	 
222	1	 1	 1	 0	 0	 1	 0	 
223	0	 1	 1	 0	 1	 1	 0	 
224	1	 1	 1	 0	 0	 1	 1	 
225	0	 1	 1	 0	 1	 1	 0	 
226	1	 1	 1	 0	 1	 0	 0	 
227	0	 1	 1	 0	 1	 1	 0	 
228	1	 1	 1	 0	 1	 0	 1	 
229	0	 1	 1	 0	 1	 1	 0	 
230	1	 1	 1	 0	 1	 1	 0	 
231	0	 1	 1	 0	 1	 1	 0	 
232	1	 1	 1	 0	 1	 1	 1	 
233	0	 1	 1	 0	 1	 1	 0	 
234	1	 1	 1	 1	 0	 0	 0	 
235	0	 1	 1	 0	 1	 1	 0	 
236	1	 1	 1	 1	 0	 0	 1	 
237	1	 0	 0	 0	 0	 1	 0	 
238	1	 1	 1	 1	 0	 1	 0	 
239	1	 0	 0	 0	 0	 1	 0	 
240	1	 1	 1	 1	 0	 1	 1	 
241	1	 1	 1	 1	 1	 0	 0	 
242	0	 0	 0	 0	 0	 0	 0	 
243	1	 1	 1	 1	 1	 0	 1	 
244	0	 0	 0	 0	 0	 0	 0	 
245	1	 1	 1	 1	 1	 1	 0	 
246	0	 0	 0	 0	 0	 0	 0	 
247	1	 1	 1	 1	 1	 1	 1	 
248	0	 0	 0	 0	 0	 0	 0	 
249	0	 0	 0	 0	 0	 0	 0	 
250	0	 0	 0	 0	 0	 0	 0	 
251	0	 0	 0	 0	 0	 0	 0	 
252	0	 0	 0	 0	 0	 0	 0	 
253	0	 0	 0	 0	 0	 0	 0	 
254	0	 0	 0	 0	 0	 0	 0	 
255	0	 0	 0	 0	 0	 0	 0	 
256	0	 0	 0	 0	 0	 0	 0	 
257	0	 0	 0	 0	 0	 0	 0	 
258	0	 0	 0	 0	 0	 0	 0	 
259	0	 0	 0	 0	 0	 0	 0	 
260	0	 0	 0	 0	 0	 0	 0	 
261	0	 0	 0	 0	 0	 0	 0	 
262	0	 0	 0	 0	 0	 0	 0	 
263	0	 0	 0	 0	 0	 0	 0	 
264	0	 0	 0	 0	 0	 0	 0	 
265	0	 0	 0	 0	 0	 0	 0	 
266	0	 0	 0	 0	 0	 0	 0	 
267	0	 0	 0	 0	 0	 0	 0	 
268	0	 0	 0	 0	 0	 0	 0	 
269	0	 0	 0	 0	 0	 0	 0	 
270	0	 0	 0	 0	 0	 0	 0	 
271	0	 0	 0	 0	 0	 0	 0	 
272	0	 0	 0	 0	 0	 0	 0	 
273	0	 0	 0	 0	 0	 0	 0	 
274	0	 0	 0	 0	 0	 0	 0	 
275	0	 0	 0	 0	 0	 0	 0	 
276	0	 0	 0	 0	 0	 0	 0	 
277	0	 0	 0	 0	 0	 0	 0	 
278	0	 0	 0	 0	 0	 0	 0	 
279	0	 0	 0	 0	 0	 0	 0	 
280	0	 0	 0	 0	 0	 0	 0	 
281	0	 0	 0	 0	 0	 0	 0	 
282	0	 0	 0	 0	 0	 0	 0	 
283	0	 0	 0	 0	 0	 0	 0	 
284	0	 0	 0	 0	 0	 0	 0	 
285	0	 0	 0	 0	 0	 0	 0	 
286	0	 0	 0	 0	 0	 0	 0	 
287	0	 0	 0	 0	 0	 0	 0	 
288	0	 0	 0	 0	 0	 0	 0	 
289	0	 0	 0	 0	 0	 0	 0	 
290	0	 0	 0	 0	 0	 0	 0	 
291	0	 0	 0	 0	 0	 0	 0	 
292	0	 0	 0	 0	 0	 0	 0	 
293	0	 0	 0	 0	 0	 0	 0	 
294	0	 0	 0	 0	 0	 0	 0	 
295	0	 0	 0	 0	 0	 0	 0	 
296	0	 0	 0	 0	 0	 0	 0	 
297	0	 0	 0	 0	 0	 0	 0	 
298	0	 0	 0	 0	 0	 0	 0	 
299	0	 0	 0	 0	 0	 0	 0	 
300	0	 0	 0	 0	 0	 0	 0	 
301	0	 0	 0	 0	 0	 0	 0	 
302	0	 0	 0	 0	 0	 0	 0	 
303	0	 0	 0	 0	 0	 0	 0	 
304	0	 0	 0	 0	 0	 0	 0	 
305	0	 0	 0	 0	 0	 0	 0	 
306	0	 0	 0	 0	 0	 0	 0	 
307	0	 0	 0	 0	 0	 0	 0	 
308	0	 0	 0	 0	 0	 0	 0	 
309	0	 0	 0	 0	 0	 0	 0	 
310	0	 0	 0	 0	 0	 0	 0	 
311	0	 0	 0	 0	 0	 0	 0	 
312	0	 0	 0	 0	 0	 0	 0	 
313	0	 0	 0	 0	 0	 0	 0	 
314	0	 0	 0	 0	 0	 0	 0	 
315	0	 0	 0	 0	 0	 0	 0	 
316	0	 0	 0	 0	 0	 0	 0	 
317	0	 0	 0	 0	 0	 0	 0	 
318	0	 0	 0	 0	 0	 0	 0	 
319	0	 0	 0	 0	 0	 0	 0	 
320	0	 0	 0	 0	 0	 0	 0	 
321	0	 0	 0	 0	 0	 0	 0	 
322	0	 0	 0	 0	 0	 0	 0	 
323	0	 0	 0	 0	 0	 0	 0	 
324	0	 0	 0	 0	 0	 0	 0	 
325	0	 0	 0	 0	 0	 0	 0	 
326	0	 0	 0	 0	 0	 0	 0	 
327	0	 0	 0	 0	 0	 0	 0	 
328	0	 0	 0	 0	 0	 0	 0	 
329	0	 0	 0	 0	 0	 0	 0	 
330	0	 0	 0	 0	 0	 0	 0	 
331	0	 0	 0	 0	 0	 0	 0	 
332	0	 0	 0	 0	 0	 0	 0	 
333	0	 0	 0	 0	 0	 0	 0	 
334	0	 0	 0	 0	 0	 0	 0	 
335	0	 0	 0	 0	 0	 0	 0	 
336	0	 0	 0	 0	 0	 0	 0	 
337	0	 0	 0	 0	 0	 0	 0	 
338	0	 0	 0	 0	 0	 0	 0	 
339	0	 0	 0	 0	 0	 0	 0	 
340	0	 0	 0	 0	 0	 0	 0	 
341	0	 0	 0	 0	 0	 0	 0	 
342	0	 0	 0	 0	 0	 0	 0	 
343	0	 0	 0	 0	 0	 0	 0	 
344	0	 0	 0	 0	 0	 0	 0	 
345	0	 0	 0	 0	 0	 0	 0	 
346	0	 0	 0	 0	 0	 0	 0	 
347	0	 0	 0	 0	 0	 0	 0	 
348	0	 0	 0	 0	 0	 0	 0	 
349	0	 0	 0	 0	 0	 0	 0	 
350	0	 0	 0	 0	 0	 0	 0	 
351	0	 0	 0	 0	 0	 0	 0	 
352	0	 0	 0	 0	 0	 0	 0	 
353	0	 0	 0	 0	 0	 0	 0	 
354	0	 0	 0	 0	 0	 0	 0	 
355	0	 0	 0	 0	 0	 0	 0	 
356	0	 0	 0	 0	 0	 0	 0	 
357	0	 0	 0	 0	 0	 0	 0	 
358	0	 0	 0	 0	 0	 0	 0	 
359	0	 0	 0	 0	 0	 0	 0	 
360	0	 0	 0	 0	 0	 0	 0	 
361	0	 0	 0	 0	 0	 0	 0	 
362	0	 0	 0	 0	 0	 0	 0	 
363	0	 0	 0	 0	 0	 0	 0	 
364	0	 0	 0	 0	 0	 0	 0	 
365	0	 0	 0	 0	 0	 0	 0	 
366	0	 0	 0	 0	 0	 0	 0	 
367	0	 0	 0	 0	 0	 0	 0	 
368	0	 0	 0	 0	 0	 0	 0	 
369	0	 0	 0	 0	 0	 0	 0	 
370	0	 0	 0	 0	 0	 0	 0	 
